50 15 110
3 26 16 26 16 3 3 26 26 26 3 3 26 17 3 3 3 17 17 3 3 3 16 26 3 3 26 26 3 3 16 26 3 3 3 3 16 16 3 3 3 3 3 3 3 3 3 3 3 3 
0 0 0.0
0 1 42.0
0 2 85.0
0 3 128.0
0 4 170.0
0 5 22.0
0 6 64.0
0 7 107.0
0 8 150.0
0 9 192.0
0 10 46.0
0 11 88.0
0 12 131.0
0 13 174.0
0 14 216.0
0 15 68.0
0 16 110.0
0 17 153.0
0 18 196.0
0 19 238.0
0 20 92.0
0 21 134.0
0 22 177.0
0 23 220.0
0 24 262.0
0 25 114.0
0 26 156.0
0 27 199.0
0 28 242.0
0 29 284.0
0 30 138.0
0 31 180.0
0 32 223.0
0 33 266.0
0 34 308.0
0 35 160.0
0 36 202.0
0 37 245.0
0 38 288.0
0 39 330.0
0 40 184.0
0 41 226.0
0 42 269.0
0 43 312.0
0 44 354.0
0 45 206.0
0 46 248.0
0 47 291.0
0 48 334.0
0 49 376.0
1 0 42.0
1 1 0.0
1 2 43.0
1 3 86.0
1 4 128.0
1 5 64.0
1 6 22.0
1 7 65.0
1 8 108.0
1 9 150.0
1 10 88.0
1 11 46.0
1 12 89.0
1 13 132.0
1 14 174.0
1 15 110.0
1 16 68.0
1 17 111.0
1 18 154.0
1 19 196.0
1 20 134.0
1 21 92.0
1 22 135.0
1 23 178.0
1 24 220.0
1 25 156.0
1 26 114.0
1 27 157.0
1 28 200.0
1 29 242.0
1 30 180.0
1 31 138.0
1 32 181.0
1 33 224.0
1 34 266.0
1 35 202.0
1 36 160.0
1 37 203.0
1 38 246.0
1 39 288.0
1 40 226.0
1 41 184.0
1 42 227.0
1 43 270.0
1 44 312.0
1 45 248.0
1 46 206.0
1 47 249.0
1 48 292.0
1 49 334.0
2 0 85.0
2 1 43.0
2 2 0.0
2 3 43.0
2 4 85.0
2 5 107.0
2 6 65.0
2 7 22.0
2 8 65.0
2 9 107.0
2 10 131.0
2 11 89.0
2 12 46.0
2 13 89.0
2 14 131.0
2 15 153.0
2 16 111.0
2 17 68.0
2 18 111.0
2 19 153.0
2 20 177.0
2 21 135.0
2 22 92.0
2 23 135.0
2 24 177.0
2 25 199.0
2 26 157.0
2 27 114.0
2 28 157.0
2 29 199.0
2 30 223.0
2 31 181.0
2 32 138.0
2 33 181.0
2 34 223.0
2 35 245.0
2 36 203.0
2 37 160.0
2 38 203.0
2 39 245.0
2 40 269.0
2 41 227.0
2 42 184.0
2 43 227.0
2 44 269.0
2 45 291.0
2 46 249.0
2 47 206.0
2 48 249.0
2 49 291.0
3 0 128.0
3 1 86.0
3 2 43.0
3 3 0.0
3 4 42.0
3 5 150.0
3 6 108.0
3 7 65.0
3 8 22.0
3 9 64.0
3 10 174.0
3 11 132.0
3 12 89.0
3 13 46.0
3 14 88.0
3 15 196.0
3 16 154.0
3 17 111.0
3 18 68.0
3 19 110.0
3 20 220.0
3 21 178.0
3 22 135.0
3 23 92.0
3 24 134.0
3 25 242.0
3 26 200.0
3 27 157.0
3 28 114.0
3 29 156.0
3 30 266.0
3 31 224.0
3 32 181.0
3 33 138.0
3 34 180.0
3 35 288.0
3 36 246.0
3 37 203.0
3 38 160.0
3 39 202.0
3 40 312.0
3 41 270.0
3 42 227.0
3 43 184.0
3 44 226.0
3 45 334.0
3 46 292.0
3 47 249.0
3 48 206.0
3 49 248.0
4 0 170.0
4 1 128.0
4 2 85.0
4 3 42.0
4 4 0.0
4 5 192.0
4 6 150.0
4 7 107.0
4 8 64.0
4 9 22.0
4 10 216.0
4 11 174.0
4 12 131.0
4 13 88.0
4 14 46.0
4 15 238.0
4 16 196.0
4 17 153.0
4 18 110.0
4 19 68.0
4 20 262.0
4 21 220.0
4 22 177.0
4 23 134.0
4 24 92.0
4 25 284.0
4 26 242.0
4 27 199.0
4 28 156.0
4 29 114.0
4 30 308.0
4 31 266.0
4 32 223.0
4 33 180.0
4 34 138.0
4 35 330.0
4 36 288.0
4 37 245.0
4 38 202.0
4 39 160.0
4 40 354.0
4 41 312.0
4 42 269.0
4 43 226.0
4 44 184.0
4 45 376.0
4 46 334.0
4 47 291.0
4 48 248.0
4 49 206.0
5 0 22.0
5 1 64.0
5 2 107.0
5 3 150.0
5 4 192.0
5 5 0.0
5 6 42.0
5 7 85.0
5 8 128.0
5 9 170.0
5 10 24.0
5 11 66.0
5 12 109.0
5 13 152.0
5 14 194.0
5 15 46.0
5 16 88.0
5 17 131.0
5 18 174.0
5 19 216.0
5 20 70.0
5 21 112.0
5 22 155.0
5 23 198.0
5 24 240.0
5 25 92.0
5 26 134.0
5 27 177.0
5 28 220.0
5 29 262.0
5 30 116.0
5 31 158.0
5 32 201.0
5 33 244.0
5 34 286.0
5 35 138.0
5 36 180.0
5 37 223.0
5 38 266.0
5 39 308.0
5 40 162.0
5 41 204.0
5 42 247.0
5 43 290.0
5 44 332.0
5 45 184.0
5 46 226.0
5 47 269.0
5 48 312.0
5 49 354.0
6 0 64.0
6 1 22.0
6 2 65.0
6 3 108.0
6 4 150.0
6 5 42.0
6 6 0.0
6 7 43.0
6 8 86.0
6 9 128.0
6 10 66.0
6 11 24.0
6 12 67.0
6 13 110.0
6 14 152.0
6 15 88.0
6 16 46.0
6 17 89.0
6 18 132.0
6 19 174.0
6 20 112.0
6 21 70.0
6 22 113.0
6 23 156.0
6 24 198.0
6 25 134.0
6 26 92.0
6 27 135.0
6 28 178.0
6 29 220.0
6 30 158.0
6 31 116.0
6 32 159.0
6 33 202.0
6 34 244.0
6 35 180.0
6 36 138.0
6 37 181.0
6 38 224.0
6 39 266.0
6 40 204.0
6 41 162.0
6 42 205.0
6 43 248.0
6 44 290.0
6 45 226.0
6 46 184.0
6 47 227.0
6 48 270.0
6 49 312.0
7 0 107.0
7 1 65.0
7 2 22.0
7 3 65.0
7 4 107.0
7 5 85.0
7 6 43.0
7 7 0.0
7 8 43.0
7 9 85.0
7 10 109.0
7 11 67.0
7 12 24.0
7 13 67.0
7 14 109.0
7 15 131.0
7 16 89.0
7 17 46.0
7 18 89.0
7 19 131.0
7 20 155.0
7 21 113.0
7 22 70.0
7 23 113.0
7 24 155.0
7 25 177.0
7 26 135.0
7 27 92.0
7 28 135.0
7 29 177.0
7 30 201.0
7 31 159.0
7 32 116.0
7 33 159.0
7 34 201.0
7 35 223.0
7 36 181.0
7 37 138.0
7 38 181.0
7 39 223.0
7 40 247.0
7 41 205.0
7 42 162.0
7 43 205.0
7 44 247.0
7 45 269.0
7 46 227.0
7 47 184.0
7 48 227.0
7 49 269.0
8 0 150.0
8 1 108.0
8 2 65.0
8 3 22.0
8 4 64.0
8 5 128.0
8 6 86.0
8 7 43.0
8 8 0.0
8 9 42.0
8 10 152.0
8 11 110.0
8 12 67.0
8 13 24.0
8 14 66.0
8 15 174.0
8 16 132.0
8 17 89.0
8 18 46.0
8 19 88.0
8 20 198.0
8 21 156.0
8 22 113.0
8 23 70.0
8 24 112.0
8 25 220.0
8 26 178.0
8 27 135.0
8 28 92.0
8 29 134.0
8 30 244.0
8 31 202.0
8 32 159.0
8 33 116.0
8 34 158.0
8 35 266.0
8 36 224.0
8 37 181.0
8 38 138.0
8 39 180.0
8 40 290.0
8 41 248.0
8 42 205.0
8 43 162.0
8 44 204.0
8 45 312.0
8 46 270.0
8 47 227.0
8 48 184.0
8 49 226.0
9 0 192.0
9 1 150.0
9 2 107.0
9 3 64.0
9 4 22.0
9 5 170.0
9 6 128.0
9 7 85.0
9 8 42.0
9 9 0.0
9 10 194.0
9 11 152.0
9 12 109.0
9 13 66.0
9 14 24.0
9 15 216.0
9 16 174.0
9 17 131.0
9 18 88.0
9 19 46.0
9 20 240.0
9 21 198.0
9 22 155.0
9 23 112.0
9 24 70.0
9 25 262.0
9 26 220.0
9 27 177.0
9 28 134.0
9 29 92.0
9 30 286.0
9 31 244.0
9 32 201.0
9 33 158.0
9 34 116.0
9 35 308.0
9 36 266.0
9 37 223.0
9 38 180.0
9 39 138.0
9 40 332.0
9 41 290.0
9 42 247.0
9 43 204.0
9 44 162.0
9 45 354.0
9 46 312.0
9 47 269.0
9 48 226.0
9 49 184.0
10 0 46.0
10 1 88.0
10 2 131.0
10 3 174.0
10 4 216.0
10 5 24.0
10 6 66.0
10 7 109.0
10 8 152.0
10 9 194.0
10 10 0.0
10 11 42.0
10 12 85.0
10 13 128.0
10 14 170.0
10 15 22.0
10 16 64.0
10 17 107.0
10 18 150.0
10 19 192.0
10 20 46.0
10 21 88.0
10 22 131.0
10 23 174.0
10 24 216.0
10 25 68.0
10 26 110.0
10 27 153.0
10 28 196.0
10 29 238.0
10 30 92.0
10 31 134.0
10 32 177.0
10 33 220.0
10 34 262.0
10 35 114.0
10 36 156.0
10 37 199.0
10 38 242.0
10 39 284.0
10 40 138.0
10 41 180.0
10 42 223.0
10 43 266.0
10 44 308.0
10 45 160.0
10 46 202.0
10 47 245.0
10 48 288.0
10 49 330.0
11 0 88.0
11 1 46.0
11 2 89.0
11 3 132.0
11 4 174.0
11 5 66.0
11 6 24.0
11 7 67.0
11 8 110.0
11 9 152.0
11 10 42.0
11 11 0.0
11 12 43.0
11 13 86.0
11 14 128.0
11 15 64.0
11 16 22.0
11 17 65.0
11 18 108.0
11 19 150.0
11 20 88.0
11 21 46.0
11 22 89.0
11 23 132.0
11 24 174.0
11 25 110.0
11 26 68.0
11 27 111.0
11 28 154.0
11 29 196.0
11 30 134.0
11 31 92.0
11 32 135.0
11 33 178.0
11 34 220.0
11 35 156.0
11 36 114.0
11 37 157.0
11 38 200.0
11 39 242.0
11 40 180.0
11 41 138.0
11 42 181.0
11 43 224.0
11 44 266.0
11 45 202.0
11 46 160.0
11 47 203.0
11 48 246.0
11 49 288.0
12 0 131.0
12 1 89.0
12 2 46.0
12 3 89.0
12 4 131.0
12 5 109.0
12 6 67.0
12 7 24.0
12 8 67.0
12 9 109.0
12 10 85.0
12 11 43.0
12 12 0.0
12 13 43.0
12 14 85.0
12 15 107.0
12 16 65.0
12 17 22.0
12 18 65.0
12 19 107.0
12 20 131.0
12 21 89.0
12 22 46.0
12 23 89.0
12 24 131.0
12 25 153.0
12 26 111.0
12 27 68.0
12 28 111.0
12 29 153.0
12 30 177.0
12 31 135.0
12 32 92.0
12 33 135.0
12 34 177.0
12 35 199.0
12 36 157.0
12 37 114.0
12 38 157.0
12 39 199.0
12 40 223.0
12 41 181.0
12 42 138.0
12 43 181.0
12 44 223.0
12 45 245.0
12 46 203.0
12 47 160.0
12 48 203.0
12 49 245.0
13 0 174.0
13 1 132.0
13 2 89.0
13 3 46.0
13 4 88.0
13 5 152.0
13 6 110.0
13 7 67.0
13 8 24.0
13 9 66.0
13 10 128.0
13 11 86.0
13 12 43.0
13 13 0.0
13 14 42.0
13 15 150.0
13 16 108.0
13 17 65.0
13 18 22.0
13 19 64.0
13 20 174.0
13 21 132.0
13 22 89.0
13 23 46.0
13 24 88.0
13 25 196.0
13 26 154.0
13 27 111.0
13 28 68.0
13 29 110.0
13 30 220.0
13 31 178.0
13 32 135.0
13 33 92.0
13 34 134.0
13 35 242.0
13 36 200.0
13 37 157.0
13 38 114.0
13 39 156.0
13 40 266.0
13 41 224.0
13 42 181.0
13 43 138.0
13 44 180.0
13 45 288.0
13 46 246.0
13 47 203.0
13 48 160.0
13 49 202.0
14 0 216.0
14 1 174.0
14 2 131.0
14 3 88.0
14 4 46.0
14 5 194.0
14 6 152.0
14 7 109.0
14 8 66.0
14 9 24.0
14 10 170.0
14 11 128.0
14 12 85.0
14 13 42.0
14 14 0.0
14 15 192.0
14 16 150.0
14 17 107.0
14 18 64.0
14 19 22.0
14 20 216.0
14 21 174.0
14 22 131.0
14 23 88.0
14 24 46.0
14 25 238.0
14 26 196.0
14 27 153.0
14 28 110.0
14 29 68.0
14 30 262.0
14 31 220.0
14 32 177.0
14 33 134.0
14 34 92.0
14 35 284.0
14 36 242.0
14 37 199.0
14 38 156.0
14 39 114.0
14 40 308.0
14 41 266.0
14 42 223.0
14 43 180.0
14 44 138.0
14 45 330.0
14 46 288.0
14 47 245.0
14 48 202.0
14 49 160.0
15 0 68.0
15 1 110.0
15 2 153.0
15 3 196.0
15 4 238.0
15 5 46.0
15 6 88.0
15 7 131.0
15 8 174.0
15 9 216.0
15 10 22.0
15 11 64.0
15 12 107.0
15 13 150.0
15 14 192.0
15 15 0.0
15 16 42.0
15 17 85.0
15 18 128.0
15 19 170.0
15 20 24.0
15 21 66.0
15 22 109.0
15 23 152.0
15 24 194.0
15 25 46.0
15 26 88.0
15 27 131.0
15 28 174.0
15 29 216.0
15 30 70.0
15 31 112.0
15 32 155.0
15 33 198.0
15 34 240.0
15 35 92.0
15 36 134.0
15 37 177.0
15 38 220.0
15 39 262.0
15 40 116.0
15 41 158.0
15 42 201.0
15 43 244.0
15 44 286.0
15 45 138.0
15 46 180.0
15 47 223.0
15 48 266.0
15 49 308.0
16 0 110.0
16 1 68.0
16 2 111.0
16 3 154.0
16 4 196.0
16 5 88.0
16 6 46.0
16 7 89.0
16 8 132.0
16 9 174.0
16 10 64.0
16 11 22.0
16 12 65.0
16 13 108.0
16 14 150.0
16 15 42.0
16 16 0.0
16 17 43.0
16 18 86.0
16 19 128.0
16 20 66.0
16 21 24.0
16 22 67.0
16 23 110.0
16 24 152.0
16 25 88.0
16 26 46.0
16 27 89.0
16 28 132.0
16 29 174.0
16 30 112.0
16 31 70.0
16 32 113.0
16 33 156.0
16 34 198.0
16 35 134.0
16 36 92.0
16 37 135.0
16 38 178.0
16 39 220.0
16 40 158.0
16 41 116.0
16 42 159.0
16 43 202.0
16 44 244.0
16 45 180.0
16 46 138.0
16 47 181.0
16 48 224.0
16 49 266.0
17 0 153.0
17 1 111.0
17 2 68.0
17 3 111.0
17 4 153.0
17 5 131.0
17 6 89.0
17 7 46.0
17 8 89.0
17 9 131.0
17 10 107.0
17 11 65.0
17 12 22.0
17 13 65.0
17 14 107.0
17 15 85.0
17 16 43.0
17 17 0.0
17 18 43.0
17 19 85.0
17 20 109.0
17 21 67.0
17 22 24.0
17 23 67.0
17 24 109.0
17 25 131.0
17 26 89.0
17 27 46.0
17 28 89.0
17 29 131.0
17 30 155.0
17 31 113.0
17 32 70.0
17 33 113.0
17 34 155.0
17 35 177.0
17 36 135.0
17 37 92.0
17 38 135.0
17 39 177.0
17 40 201.0
17 41 159.0
17 42 116.0
17 43 159.0
17 44 201.0
17 45 223.0
17 46 181.0
17 47 138.0
17 48 181.0
17 49 223.0
18 0 196.0
18 1 154.0
18 2 111.0
18 3 68.0
18 4 110.0
18 5 174.0
18 6 132.0
18 7 89.0
18 8 46.0
18 9 88.0
18 10 150.0
18 11 108.0
18 12 65.0
18 13 22.0
18 14 64.0
18 15 128.0
18 16 86.0
18 17 43.0
18 18 0.0
18 19 42.0
18 20 152.0
18 21 110.0
18 22 67.0
18 23 24.0
18 24 66.0
18 25 174.0
18 26 132.0
18 27 89.0
18 28 46.0
18 29 88.0
18 30 198.0
18 31 156.0
18 32 113.0
18 33 70.0
18 34 112.0
18 35 220.0
18 36 178.0
18 37 135.0
18 38 92.0
18 39 134.0
18 40 244.0
18 41 202.0
18 42 159.0
18 43 116.0
18 44 158.0
18 45 266.0
18 46 224.0
18 47 181.0
18 48 138.0
18 49 180.0
19 0 238.0
19 1 196.0
19 2 153.0
19 3 110.0
19 4 68.0
19 5 216.0
19 6 174.0
19 7 131.0
19 8 88.0
19 9 46.0
19 10 192.0
19 11 150.0
19 12 107.0
19 13 64.0
19 14 22.0
19 15 170.0
19 16 128.0
19 17 85.0
19 18 42.0
19 19 0.0
19 20 194.0
19 21 152.0
19 22 109.0
19 23 66.0
19 24 24.0
19 25 216.0
19 26 174.0
19 27 131.0
19 28 88.0
19 29 46.0
19 30 240.0
19 31 198.0
19 32 155.0
19 33 112.0
19 34 70.0
19 35 262.0
19 36 220.0
19 37 177.0
19 38 134.0
19 39 92.0
19 40 286.0
19 41 244.0
19 42 201.0
19 43 158.0
19 44 116.0
19 45 308.0
19 46 266.0
19 47 223.0
19 48 180.0
19 49 138.0
20 0 92.0
20 1 134.0
20 2 177.0
20 3 220.0
20 4 262.0
20 5 70.0
20 6 112.0
20 7 155.0
20 8 198.0
20 9 240.0
20 10 46.0
20 11 88.0
20 12 131.0
20 13 174.0
20 14 216.0
20 15 24.0
20 16 66.0
20 17 109.0
20 18 152.0
20 19 194.0
20 20 0.0
20 21 42.0
20 22 85.0
20 23 128.0
20 24 170.0
20 25 22.0
20 26 64.0
20 27 107.0
20 28 150.0
20 29 192.0
20 30 46.0
20 31 88.0
20 32 131.0
20 33 174.0
20 34 216.0
20 35 68.0
20 36 110.0
20 37 153.0
20 38 196.0
20 39 238.0
20 40 92.0
20 41 134.0
20 42 177.0
20 43 220.0
20 44 262.0
20 45 114.0
20 46 156.0
20 47 199.0
20 48 242.0
20 49 284.0
21 0 134.0
21 1 92.0
21 2 135.0
21 3 178.0
21 4 220.0
21 5 112.0
21 6 70.0
21 7 113.0
21 8 156.0
21 9 198.0
21 10 88.0
21 11 46.0
21 12 89.0
21 13 132.0
21 14 174.0
21 15 66.0
21 16 24.0
21 17 67.0
21 18 110.0
21 19 152.0
21 20 42.0
21 21 0.0
21 22 43.0
21 23 86.0
21 24 128.0
21 25 64.0
21 26 22.0
21 27 65.0
21 28 108.0
21 29 150.0
21 30 88.0
21 31 46.0
21 32 89.0
21 33 132.0
21 34 174.0
21 35 110.0
21 36 68.0
21 37 111.0
21 38 154.0
21 39 196.0
21 40 134.0
21 41 92.0
21 42 135.0
21 43 178.0
21 44 220.0
21 45 156.0
21 46 114.0
21 47 157.0
21 48 200.0
21 49 242.0
22 0 177.0
22 1 135.0
22 2 92.0
22 3 135.0
22 4 177.0
22 5 155.0
22 6 113.0
22 7 70.0
22 8 113.0
22 9 155.0
22 10 131.0
22 11 89.0
22 12 46.0
22 13 89.0
22 14 131.0
22 15 109.0
22 16 67.0
22 17 24.0
22 18 67.0
22 19 109.0
22 20 85.0
22 21 43.0
22 22 0.0
22 23 43.0
22 24 85.0
22 25 107.0
22 26 65.0
22 27 22.0
22 28 65.0
22 29 107.0
22 30 131.0
22 31 89.0
22 32 46.0
22 33 89.0
22 34 131.0
22 35 153.0
22 36 111.0
22 37 68.0
22 38 111.0
22 39 153.0
22 40 177.0
22 41 135.0
22 42 92.0
22 43 135.0
22 44 177.0
22 45 199.0
22 46 157.0
22 47 114.0
22 48 157.0
22 49 199.0
23 0 220.0
23 1 178.0
23 2 135.0
23 3 92.0
23 4 134.0
23 5 198.0
23 6 156.0
23 7 113.0
23 8 70.0
23 9 112.0
23 10 174.0
23 11 132.0
23 12 89.0
23 13 46.0
23 14 88.0
23 15 152.0
23 16 110.0
23 17 67.0
23 18 24.0
23 19 66.0
23 20 128.0
23 21 86.0
23 22 43.0
23 23 0.0
23 24 42.0
23 25 150.0
23 26 108.0
23 27 65.0
23 28 22.0
23 29 64.0
23 30 174.0
23 31 132.0
23 32 89.0
23 33 46.0
23 34 88.0
23 35 196.0
23 36 154.0
23 37 111.0
23 38 68.0
23 39 110.0
23 40 220.0
23 41 178.0
23 42 135.0
23 43 92.0
23 44 134.0
23 45 242.0
23 46 200.0
23 47 157.0
23 48 114.0
23 49 156.0
24 0 262.0
24 1 220.0
24 2 177.0
24 3 134.0
24 4 92.0
24 5 240.0
24 6 198.0
24 7 155.0
24 8 112.0
24 9 70.0
24 10 216.0
24 11 174.0
24 12 131.0
24 13 88.0
24 14 46.0
24 15 194.0
24 16 152.0
24 17 109.0
24 18 66.0
24 19 24.0
24 20 170.0
24 21 128.0
24 22 85.0
24 23 42.0
24 24 0.0
24 25 192.0
24 26 150.0
24 27 107.0
24 28 64.0
24 29 22.0
24 30 216.0
24 31 174.0
24 32 131.0
24 33 88.0
24 34 46.0
24 35 238.0
24 36 196.0
24 37 153.0
24 38 110.0
24 39 68.0
24 40 262.0
24 41 220.0
24 42 177.0
24 43 134.0
24 44 92.0
24 45 284.0
24 46 242.0
24 47 199.0
24 48 156.0
24 49 114.0
25 0 114.0
25 1 156.0
25 2 199.0
25 3 242.0
25 4 284.0
25 5 92.0
25 6 134.0
25 7 177.0
25 8 220.0
25 9 262.0
25 10 68.0
25 11 110.0
25 12 153.0
25 13 196.0
25 14 238.0
25 15 46.0
25 16 88.0
25 17 131.0
25 18 174.0
25 19 216.0
25 20 22.0
25 21 64.0
25 22 107.0
25 23 150.0
25 24 192.0
25 25 0.0
25 26 42.0
25 27 85.0
25 28 128.0
25 29 170.0
25 30 24.0
25 31 66.0
25 32 109.0
25 33 152.0
25 34 194.0
25 35 46.0
25 36 88.0
25 37 131.0
25 38 174.0
25 39 216.0
25 40 70.0
25 41 112.0
25 42 155.0
25 43 198.0
25 44 240.0
25 45 92.0
25 46 134.0
25 47 177.0
25 48 220.0
25 49 262.0
26 0 156.0
26 1 114.0
26 2 157.0
26 3 200.0
26 4 242.0
26 5 134.0
26 6 92.0
26 7 135.0
26 8 178.0
26 9 220.0
26 10 110.0
26 11 68.0
26 12 111.0
26 13 154.0
26 14 196.0
26 15 88.0
26 16 46.0
26 17 89.0
26 18 132.0
26 19 174.0
26 20 64.0
26 21 22.0
26 22 65.0
26 23 108.0
26 24 150.0
26 25 42.0
26 26 0.0
26 27 43.0
26 28 86.0
26 29 128.0
26 30 66.0
26 31 24.0
26 32 67.0
26 33 110.0
26 34 152.0
26 35 88.0
26 36 46.0
26 37 89.0
26 38 132.0
26 39 174.0
26 40 112.0
26 41 70.0
26 42 113.0
26 43 156.0
26 44 198.0
26 45 134.0
26 46 92.0
26 47 135.0
26 48 178.0
26 49 220.0
27 0 199.0
27 1 157.0
27 2 114.0
27 3 157.0
27 4 199.0
27 5 177.0
27 6 135.0
27 7 92.0
27 8 135.0
27 9 177.0
27 10 153.0
27 11 111.0
27 12 68.0
27 13 111.0
27 14 153.0
27 15 131.0
27 16 89.0
27 17 46.0
27 18 89.0
27 19 131.0
27 20 107.0
27 21 65.0
27 22 22.0
27 23 65.0
27 24 107.0
27 25 85.0
27 26 43.0
27 27 0.0
27 28 43.0
27 29 85.0
27 30 109.0
27 31 67.0
27 32 24.0
27 33 67.0
27 34 109.0
27 35 131.0
27 36 89.0
27 37 46.0
27 38 89.0
27 39 131.0
27 40 155.0
27 41 113.0
27 42 70.0
27 43 113.0
27 44 155.0
27 45 177.0
27 46 135.0
27 47 92.0
27 48 135.0
27 49 177.0
28 0 242.0
28 1 200.0
28 2 157.0
28 3 114.0
28 4 156.0
28 5 220.0
28 6 178.0
28 7 135.0
28 8 92.0
28 9 134.0
28 10 196.0
28 11 154.0
28 12 111.0
28 13 68.0
28 14 110.0
28 15 174.0
28 16 132.0
28 17 89.0
28 18 46.0
28 19 88.0
28 20 150.0
28 21 108.0
28 22 65.0
28 23 22.0
28 24 64.0
28 25 128.0
28 26 86.0
28 27 43.0
28 28 0.0
28 29 42.0
28 30 152.0
28 31 110.0
28 32 67.0
28 33 24.0
28 34 66.0
28 35 174.0
28 36 132.0
28 37 89.0
28 38 46.0
28 39 88.0
28 40 198.0
28 41 156.0
28 42 113.0
28 43 70.0
28 44 112.0
28 45 220.0
28 46 178.0
28 47 135.0
28 48 92.0
28 49 134.0
29 0 284.0
29 1 242.0
29 2 199.0
29 3 156.0
29 4 114.0
29 5 262.0
29 6 220.0
29 7 177.0
29 8 134.0
29 9 92.0
29 10 238.0
29 11 196.0
29 12 153.0
29 13 110.0
29 14 68.0
29 15 216.0
29 16 174.0
29 17 131.0
29 18 88.0
29 19 46.0
29 20 192.0
29 21 150.0
29 22 107.0
29 23 64.0
29 24 22.0
29 25 170.0
29 26 128.0
29 27 85.0
29 28 42.0
29 29 0.0
29 30 194.0
29 31 152.0
29 32 109.0
29 33 66.0
29 34 24.0
29 35 216.0
29 36 174.0
29 37 131.0
29 38 88.0
29 39 46.0
29 40 240.0
29 41 198.0
29 42 155.0
29 43 112.0
29 44 70.0
29 45 262.0
29 46 220.0
29 47 177.0
29 48 134.0
29 49 92.0
30 0 138.0
30 1 180.0
30 2 223.0
30 3 266.0
30 4 308.0
30 5 116.0
30 6 158.0
30 7 201.0
30 8 244.0
30 9 286.0
30 10 92.0
30 11 134.0
30 12 177.0
30 13 220.0
30 14 262.0
30 15 70.0
30 16 112.0
30 17 155.0
30 18 198.0
30 19 240.0
30 20 46.0
30 21 88.0
30 22 131.0
30 23 174.0
30 24 216.0
30 25 24.0
30 26 66.0
30 27 109.0
30 28 152.0
30 29 194.0
30 30 0.0
30 31 42.0
30 32 85.0
30 33 128.0
30 34 170.0
30 35 22.0
30 36 64.0
30 37 107.0
30 38 150.0
30 39 192.0
30 40 46.0
30 41 88.0
30 42 131.0
30 43 174.0
30 44 216.0
30 45 68.0
30 46 110.0
30 47 153.0
30 48 196.0
30 49 238.0
31 0 180.0
31 1 138.0
31 2 181.0
31 3 224.0
31 4 266.0
31 5 158.0
31 6 116.0
31 7 159.0
31 8 202.0
31 9 244.0
31 10 134.0
31 11 92.0
31 12 135.0
31 13 178.0
31 14 220.0
31 15 112.0
31 16 70.0
31 17 113.0
31 18 156.0
31 19 198.0
31 20 88.0
31 21 46.0
31 22 89.0
31 23 132.0
31 24 174.0
31 25 66.0
31 26 24.0
31 27 67.0
31 28 110.0
31 29 152.0
31 30 42.0
31 31 0.0
31 32 43.0
31 33 86.0
31 34 128.0
31 35 64.0
31 36 22.0
31 37 65.0
31 38 108.0
31 39 150.0
31 40 88.0
31 41 46.0
31 42 89.0
31 43 132.0
31 44 174.0
31 45 110.0
31 46 68.0
31 47 111.0
31 48 154.0
31 49 196.0
32 0 223.0
32 1 181.0
32 2 138.0
32 3 181.0
32 4 223.0
32 5 201.0
32 6 159.0
32 7 116.0
32 8 159.0
32 9 201.0
32 10 177.0
32 11 135.0
32 12 92.0
32 13 135.0
32 14 177.0
32 15 155.0
32 16 113.0
32 17 70.0
32 18 113.0
32 19 155.0
32 20 131.0
32 21 89.0
32 22 46.0
32 23 89.0
32 24 131.0
32 25 109.0
32 26 67.0
32 27 24.0
32 28 67.0
32 29 109.0
32 30 85.0
32 31 43.0
32 32 0.0
32 33 43.0
32 34 85.0
32 35 107.0
32 36 65.0
32 37 22.0
32 38 65.0
32 39 107.0
32 40 131.0
32 41 89.0
32 42 46.0
32 43 89.0
32 44 131.0
32 45 153.0
32 46 111.0
32 47 68.0
32 48 111.0
32 49 153.0
33 0 266.0
33 1 224.0
33 2 181.0
33 3 138.0
33 4 180.0
33 5 244.0
33 6 202.0
33 7 159.0
33 8 116.0
33 9 158.0
33 10 220.0
33 11 178.0
33 12 135.0
33 13 92.0
33 14 134.0
33 15 198.0
33 16 156.0
33 17 113.0
33 18 70.0
33 19 112.0
33 20 174.0
33 21 132.0
33 22 89.0
33 23 46.0
33 24 88.0
33 25 152.0
33 26 110.0
33 27 67.0
33 28 24.0
33 29 66.0
33 30 128.0
33 31 86.0
33 32 43.0
33 33 0.0
33 34 42.0
33 35 150.0
33 36 108.0
33 37 65.0
33 38 22.0
33 39 64.0
33 40 174.0
33 41 132.0
33 42 89.0
33 43 46.0
33 44 88.0
33 45 196.0
33 46 154.0
33 47 111.0
33 48 68.0
33 49 110.0
34 0 308.0
34 1 266.0
34 2 223.0
34 3 180.0
34 4 138.0
34 5 286.0
34 6 244.0
34 7 201.0
34 8 158.0
34 9 116.0
34 10 262.0
34 11 220.0
34 12 177.0
34 13 134.0
34 14 92.0
34 15 240.0
34 16 198.0
34 17 155.0
34 18 112.0
34 19 70.0
34 20 216.0
34 21 174.0
34 22 131.0
34 23 88.0
34 24 46.0
34 25 194.0
34 26 152.0
34 27 109.0
34 28 66.0
34 29 24.0
34 30 170.0
34 31 128.0
34 32 85.0
34 33 42.0
34 34 0.0
34 35 192.0
34 36 150.0
34 37 107.0
34 38 64.0
34 39 22.0
34 40 216.0
34 41 174.0
34 42 131.0
34 43 88.0
34 44 46.0
34 45 238.0
34 46 196.0
34 47 153.0
34 48 110.0
34 49 68.0
35 0 160.0
35 1 202.0
35 2 245.0
35 3 288.0
35 4 330.0
35 5 138.0
35 6 180.0
35 7 223.0
35 8 266.0
35 9 308.0
35 10 114.0
35 11 156.0
35 12 199.0
35 13 242.0
35 14 284.0
35 15 92.0
35 16 134.0
35 17 177.0
35 18 220.0
35 19 262.0
35 20 68.0
35 21 110.0
35 22 153.0
35 23 196.0
35 24 238.0
35 25 46.0
35 26 88.0
35 27 131.0
35 28 174.0
35 29 216.0
35 30 22.0
35 31 64.0
35 32 107.0
35 33 150.0
35 34 192.0
35 35 0.0
35 36 42.0
35 37 85.0
35 38 128.0
35 39 170.0
35 40 24.0
35 41 66.0
35 42 109.0
35 43 152.0
35 44 194.0
35 45 46.0
35 46 88.0
35 47 131.0
35 48 174.0
35 49 216.0
36 0 202.0
36 1 160.0
36 2 203.0
36 3 246.0
36 4 288.0
36 5 180.0
36 6 138.0
36 7 181.0
36 8 224.0
36 9 266.0
36 10 156.0
36 11 114.0
36 12 157.0
36 13 200.0
36 14 242.0
36 15 134.0
36 16 92.0
36 17 135.0
36 18 178.0
36 19 220.0
36 20 110.0
36 21 68.0
36 22 111.0
36 23 154.0
36 24 196.0
36 25 88.0
36 26 46.0
36 27 89.0
36 28 132.0
36 29 174.0
36 30 64.0
36 31 22.0
36 32 65.0
36 33 108.0
36 34 150.0
36 35 42.0
36 36 0.0
36 37 43.0
36 38 86.0
36 39 128.0
36 40 66.0
36 41 24.0
36 42 67.0
36 43 110.0
36 44 152.0
36 45 88.0
36 46 46.0
36 47 89.0
36 48 132.0
36 49 174.0
37 0 245.0
37 1 203.0
37 2 160.0
37 3 203.0
37 4 245.0
37 5 223.0
37 6 181.0
37 7 138.0
37 8 181.0
37 9 223.0
37 10 199.0
37 11 157.0
37 12 114.0
37 13 157.0
37 14 199.0
37 15 177.0
37 16 135.0
37 17 92.0
37 18 135.0
37 19 177.0
37 20 153.0
37 21 111.0
37 22 68.0
37 23 111.0
37 24 153.0
37 25 131.0
37 26 89.0
37 27 46.0
37 28 89.0
37 29 131.0
37 30 107.0
37 31 65.0
37 32 22.0
37 33 65.0
37 34 107.0
37 35 85.0
37 36 43.0
37 37 0.0
37 38 43.0
37 39 85.0
37 40 109.0
37 41 67.0
37 42 24.0
37 43 67.0
37 44 109.0
37 45 131.0
37 46 89.0
37 47 46.0
37 48 89.0
37 49 131.0
38 0 288.0
38 1 246.0
38 2 203.0
38 3 160.0
38 4 202.0
38 5 266.0
38 6 224.0
38 7 181.0
38 8 138.0
38 9 180.0
38 10 242.0
38 11 200.0
38 12 157.0
38 13 114.0
38 14 156.0
38 15 220.0
38 16 178.0
38 17 135.0
38 18 92.0
38 19 134.0
38 20 196.0
38 21 154.0
38 22 111.0
38 23 68.0
38 24 110.0
38 25 174.0
38 26 132.0
38 27 89.0
38 28 46.0
38 29 88.0
38 30 150.0
38 31 108.0
38 32 65.0
38 33 22.0
38 34 64.0
38 35 128.0
38 36 86.0
38 37 43.0
38 38 0.0
38 39 42.0
38 40 152.0
38 41 110.0
38 42 67.0
38 43 24.0
38 44 66.0
38 45 174.0
38 46 132.0
38 47 89.0
38 48 46.0
38 49 88.0
39 0 330.0
39 1 288.0
39 2 245.0
39 3 202.0
39 4 160.0
39 5 308.0
39 6 266.0
39 7 223.0
39 8 180.0
39 9 138.0
39 10 284.0
39 11 242.0
39 12 199.0
39 13 156.0
39 14 114.0
39 15 262.0
39 16 220.0
39 17 177.0
39 18 134.0
39 19 92.0
39 20 238.0
39 21 196.0
39 22 153.0
39 23 110.0
39 24 68.0
39 25 216.0
39 26 174.0
39 27 131.0
39 28 88.0
39 29 46.0
39 30 192.0
39 31 150.0
39 32 107.0
39 33 64.0
39 34 22.0
39 35 170.0
39 36 128.0
39 37 85.0
39 38 42.0
39 39 0.0
39 40 194.0
39 41 152.0
39 42 109.0
39 43 66.0
39 44 24.0
39 45 216.0
39 46 174.0
39 47 131.0
39 48 88.0
39 49 46.0
40 0 184.0
40 1 226.0
40 2 269.0
40 3 312.0
40 4 354.0
40 5 162.0
40 6 204.0
40 7 247.0
40 8 290.0
40 9 332.0
40 10 138.0
40 11 180.0
40 12 223.0
40 13 266.0
40 14 308.0
40 15 116.0
40 16 158.0
40 17 201.0
40 18 244.0
40 19 286.0
40 20 92.0
40 21 134.0
40 22 177.0
40 23 220.0
40 24 262.0
40 25 70.0
40 26 112.0
40 27 155.0
40 28 198.0
40 29 240.0
40 30 46.0
40 31 88.0
40 32 131.0
40 33 174.0
40 34 216.0
40 35 24.0
40 36 66.0
40 37 109.0
40 38 152.0
40 39 194.0
40 40 0.0
40 41 42.0
40 42 85.0
40 43 128.0
40 44 170.0
40 45 22.0
40 46 64.0
40 47 107.0
40 48 150.0
40 49 192.0
41 0 226.0
41 1 184.0
41 2 227.0
41 3 270.0
41 4 312.0
41 5 204.0
41 6 162.0
41 7 205.0
41 8 248.0
41 9 290.0
41 10 180.0
41 11 138.0
41 12 181.0
41 13 224.0
41 14 266.0
41 15 158.0
41 16 116.0
41 17 159.0
41 18 202.0
41 19 244.0
41 20 134.0
41 21 92.0
41 22 135.0
41 23 178.0
41 24 220.0
41 25 112.0
41 26 70.0
41 27 113.0
41 28 156.0
41 29 198.0
41 30 88.0
41 31 46.0
41 32 89.0
41 33 132.0
41 34 174.0
41 35 66.0
41 36 24.0
41 37 67.0
41 38 110.0
41 39 152.0
41 40 42.0
41 41 0.0
41 42 43.0
41 43 86.0
41 44 128.0
41 45 64.0
41 46 22.0
41 47 65.0
41 48 108.0
41 49 150.0
42 0 269.0
42 1 227.0
42 2 184.0
42 3 227.0
42 4 269.0
42 5 247.0
42 6 205.0
42 7 162.0
42 8 205.0
42 9 247.0
42 10 223.0
42 11 181.0
42 12 138.0
42 13 181.0
42 14 223.0
42 15 201.0
42 16 159.0
42 17 116.0
42 18 159.0
42 19 201.0
42 20 177.0
42 21 135.0
42 22 92.0
42 23 135.0
42 24 177.0
42 25 155.0
42 26 113.0
42 27 70.0
42 28 113.0
42 29 155.0
42 30 131.0
42 31 89.0
42 32 46.0
42 33 89.0
42 34 131.0
42 35 109.0
42 36 67.0
42 37 24.0
42 38 67.0
42 39 109.0
42 40 85.0
42 41 43.0
42 42 0.0
42 43 43.0
42 44 85.0
42 45 107.0
42 46 65.0
42 47 22.0
42 48 65.0
42 49 107.0
43 0 312.0
43 1 270.0
43 2 227.0
43 3 184.0
43 4 226.0
43 5 290.0
43 6 248.0
43 7 205.0
43 8 162.0
43 9 204.0
43 10 266.0
43 11 224.0
43 12 181.0
43 13 138.0
43 14 180.0
43 15 244.0
43 16 202.0
43 17 159.0
43 18 116.0
43 19 158.0
43 20 220.0
43 21 178.0
43 22 135.0
43 23 92.0
43 24 134.0
43 25 198.0
43 26 156.0
43 27 113.0
43 28 70.0
43 29 112.0
43 30 174.0
43 31 132.0
43 32 89.0
43 33 46.0
43 34 88.0
43 35 152.0
43 36 110.0
43 37 67.0
43 38 24.0
43 39 66.0
43 40 128.0
43 41 86.0
43 42 43.0
43 43 0.0
43 44 42.0
43 45 150.0
43 46 108.0
43 47 65.0
43 48 22.0
43 49 64.0
44 0 354.0
44 1 312.0
44 2 269.0
44 3 226.0
44 4 184.0
44 5 332.0
44 6 290.0
44 7 247.0
44 8 204.0
44 9 162.0
44 10 308.0
44 11 266.0
44 12 223.0
44 13 180.0
44 14 138.0
44 15 286.0
44 16 244.0
44 17 201.0
44 18 158.0
44 19 116.0
44 20 262.0
44 21 220.0
44 22 177.0
44 23 134.0
44 24 92.0
44 25 240.0
44 26 198.0
44 27 155.0
44 28 112.0
44 29 70.0
44 30 216.0
44 31 174.0
44 32 131.0
44 33 88.0
44 34 46.0
44 35 194.0
44 36 152.0
44 37 109.0
44 38 66.0
44 39 24.0
44 40 170.0
44 41 128.0
44 42 85.0
44 43 42.0
44 44 0.0
44 45 192.0
44 46 150.0
44 47 107.0
44 48 64.0
44 49 22.0
45 0 206.0
45 1 248.0
45 2 291.0
45 3 334.0
45 4 376.0
45 5 184.0
45 6 226.0
45 7 269.0
45 8 312.0
45 9 354.0
45 10 160.0
45 11 202.0
45 12 245.0
45 13 288.0
45 14 330.0
45 15 138.0
45 16 180.0
45 17 223.0
45 18 266.0
45 19 308.0
45 20 114.0
45 21 156.0
45 22 199.0
45 23 242.0
45 24 284.0
45 25 92.0
45 26 134.0
45 27 177.0
45 28 220.0
45 29 262.0
45 30 68.0
45 31 110.0
45 32 153.0
45 33 196.0
45 34 238.0
45 35 46.0
45 36 88.0
45 37 131.0
45 38 174.0
45 39 216.0
45 40 22.0
45 41 64.0
45 42 107.0
45 43 150.0
45 44 192.0
45 45 0.0
45 46 42.0
45 47 85.0
45 48 128.0
45 49 170.0
46 0 248.0
46 1 206.0
46 2 249.0
46 3 292.0
46 4 334.0
46 5 226.0
46 6 184.0
46 7 227.0
46 8 270.0
46 9 312.0
46 10 202.0
46 11 160.0
46 12 203.0
46 13 246.0
46 14 288.0
46 15 180.0
46 16 138.0
46 17 181.0
46 18 224.0
46 19 266.0
46 20 156.0
46 21 114.0
46 22 157.0
46 23 200.0
46 24 242.0
46 25 134.0
46 26 92.0
46 27 135.0
46 28 178.0
46 29 220.0
46 30 110.0
46 31 68.0
46 32 111.0
46 33 154.0
46 34 196.0
46 35 88.0
46 36 46.0
46 37 89.0
46 38 132.0
46 39 174.0
46 40 64.0
46 41 22.0
46 42 65.0
46 43 108.0
46 44 150.0
46 45 42.0
46 46 0.0
46 47 43.0
46 48 86.0
46 49 128.0
47 0 291.0
47 1 249.0
47 2 206.0
47 3 249.0
47 4 291.0
47 5 269.0
47 6 227.0
47 7 184.0
47 8 227.0
47 9 269.0
47 10 245.0
47 11 203.0
47 12 160.0
47 13 203.0
47 14 245.0
47 15 223.0
47 16 181.0
47 17 138.0
47 18 181.0
47 19 223.0
47 20 199.0
47 21 157.0
47 22 114.0
47 23 157.0
47 24 199.0
47 25 177.0
47 26 135.0
47 27 92.0
47 28 135.0
47 29 177.0
47 30 153.0
47 31 111.0
47 32 68.0
47 33 111.0
47 34 153.0
47 35 131.0
47 36 89.0
47 37 46.0
47 38 89.0
47 39 131.0
47 40 107.0
47 41 65.0
47 42 22.0
47 43 65.0
47 44 107.0
47 45 85.0
47 46 43.0
47 47 0.0
47 48 43.0
47 49 85.0
48 0 334.0
48 1 292.0
48 2 249.0
48 3 206.0
48 4 248.0
48 5 312.0
48 6 270.0
48 7 227.0
48 8 184.0
48 9 226.0
48 10 288.0
48 11 246.0
48 12 203.0
48 13 160.0
48 14 202.0
48 15 266.0
48 16 224.0
48 17 181.0
48 18 138.0
48 19 180.0
48 20 242.0
48 21 200.0
48 22 157.0
48 23 114.0
48 24 156.0
48 25 220.0
48 26 178.0
48 27 135.0
48 28 92.0
48 29 134.0
48 30 196.0
48 31 154.0
48 32 111.0
48 33 68.0
48 34 110.0
48 35 174.0
48 36 132.0
48 37 89.0
48 38 46.0
48 39 88.0
48 40 150.0
48 41 108.0
48 42 65.0
48 43 22.0
48 44 64.0
48 45 128.0
48 46 86.0
48 47 43.0
48 48 0.0
48 49 42.0
49 0 376.0
49 1 334.0
49 2 291.0
49 3 248.0
49 4 206.0
49 5 354.0
49 6 312.0
49 7 269.0
49 8 226.0
49 9 184.0
49 10 330.0
49 11 288.0
49 12 245.0
49 13 202.0
49 14 160.0
49 15 308.0
49 16 266.0
49 17 223.0
49 18 180.0
49 19 138.0
49 20 284.0
49 21 242.0
49 22 199.0
49 23 156.0
49 24 114.0
49 25 262.0
49 26 220.0
49 27 177.0
49 28 134.0
49 29 92.0
49 30 238.0
49 31 196.0
49 32 153.0
49 33 110.0
49 34 68.0
49 35 216.0
49 36 174.0
49 37 131.0
49 38 88.0
49 39 46.0
49 40 192.0
49 41 150.0
49 42 107.0
49 43 64.0
49 44 22.0
49 45 170.0
49 46 128.0
49 47 85.0
49 48 42.0
49 49 0.0
